12646
1 0 1 0 0 1 0 0 1 0 0 1 0 0 1 0 0 1 1 1 1 1 0 0 1 1 1 0 1 0 
20 11 20 2 20 5 2 24 14 17 24 8 8 20 17 14 14 17 5 11 2 0 5 17 5 8 19 24 5 24 5 25 20 25 20 20 24 24 0 14 0 14 24 8 24 14 0 20 11 8 5 14 14 5 20 20 17 11 0 14 0 5 20 11 11 11 24 0 5 24 20 20 11 17 24 8 26 20 14 24 20 0 20 17 17 17 17 0 20 5 2 24 0 11 0 5 2 2 21 18 8 0 14 25 2 25 0 11 14 28 14 14 2 11 11 21 24 24 24 24 5 8 25 20 18 0 5 24 0 21 0 11 24 5 8 14 0 5 20 0 0 8 20 14 8 25 25 5 2 5 
